p cnf 20 15
-2 14 10 -17 15 0
14 -1 -20 -18 -2 0
-16 19 12 -9 -15 0
12 19 -6 4 -10 0
5 9 4 17 1 0
-18 2 12 10 1 0
-13 -19 11 10 16 0
-2 13 -12 8 19 0
-2 -11 13 3 -19 0
10 13 -12 2 -17 0
-4 -1 -3 6 -16 0
-3 -16 9 19 17 0
15 -2 -11 17 14 0
7 -1 -18 6 11 0
14 1 19 -2 3 0
